(set-info :smt-lib-version 2.6)
(set-logic QF_NIA)
(set-info :source |
Generated by: Cristina Borralleras, Daniel Larraz, Albert Oliveras, Enric Rodriguez-Carbonell, Albert Rubio
Generated on: 2017-04-27
Generator: VeryMax
Application: Termination proving
Target solver: barcelogic
|)
(set-info :license "https://creativecommons.org/licenses/by/4.0/")
(set-info :category "industrial")
(set-info :status sat)
(declare-fun Nl3arg11 () Int)
(declare-fun Nl3arg21 () Int)
(declare-fun Nl3arg31 () Int)
(declare-fun Nl3arg41 () Int)
(declare-fun Nl3arg51 () Int)
(declare-fun Nl3arg61 () Int)
(declare-fun Nl3arg71 () Int)
(declare-fun Nl3arg81 () Int)
(declare-fun Nl3arg91 () Int)
(declare-fun lam0n0 () Int)
(declare-fun lam0n1 () Int)
(declare-fun lam0n2 () Int)
(declare-fun lam0n3 () Int)
(declare-fun lam0n4 () Int)
(declare-fun lam0n5 () Int)
(declare-fun lam0n6 () Int)
(declare-fun lam0n7 () Int)
(declare-fun lam0n8 () Int)
(declare-fun lam0n9 () Int)
(declare-fun lam0n10 () Int)
(declare-fun lam0n11 () Int)
(declare-fun lam0n12 () Int)
(declare-fun lam0n13 () Int)
(declare-fun lam0n14 () Int)
(declare-fun lam0n15 () Int)
(declare-fun lam0n16 () Int)
(declare-fun lam0n17 () Int)
(declare-fun lam0n18 () Int)
(declare-fun lam0n19 () Int)
(declare-fun Nl3CT1 () Int)
(declare-fun lam1n0 () Int)
(declare-fun lam1n1 () Int)
(declare-fun lam1n2 () Int)
(declare-fun lam1n3 () Int)
(declare-fun lam1n4 () Int)
(declare-fun lam1n5 () Int)
(declare-fun lam1n6 () Int)
(declare-fun lam1n7 () Int)
(declare-fun lam1n8 () Int)
(declare-fun lam1n9 () Int)
(declare-fun lam1n10 () Int)
(declare-fun lam1n11 () Int)
(declare-fun lam1n12 () Int)
(declare-fun lam1n13 () Int)
(declare-fun lam1n14 () Int)
(declare-fun lam1n15 () Int)
(declare-fun lam1n16 () Int)
(declare-fun lam1n17 () Int)
(declare-fun lam1n18 () Int)
(declare-fun lam1n19 () Int)
(declare-fun lam2n0 () Int)
(declare-fun lam2n1 () Int)
(declare-fun lam2n2 () Int)
(declare-fun lam2n3 () Int)
(declare-fun lam2n4 () Int)
(declare-fun lam2n5 () Int)
(declare-fun lam2n6 () Int)
(declare-fun lam2n7 () Int)
(declare-fun lam2n8 () Int)
(declare-fun lam2n9 () Int)
(declare-fun lam2n10 () Int)
(declare-fun lam2n11 () Int)
(declare-fun lam2n12 () Int)
(declare-fun lam2n13 () Int)
(declare-fun lam2n14 () Int)
(declare-fun lam2n15 () Int)
(declare-fun lam2n16 () Int)
(declare-fun lam2n17 () Int)
(declare-fun lam2n18 () Int)
(declare-fun lam2n19 () Int)
(declare-fun lam2n20 () Int)
(declare-fun lam2n21 () Int)
(declare-fun lam2n22 () Int)
(declare-fun lam2n23 () Int)
(declare-fun lam2n24 () Int)
(declare-fun lam2n25 () Int)
(declare-fun lam2n28 () Int)
(declare-fun lam2n26 () Int)
(declare-fun lam2n27 () Int)
(declare-fun lam3n0 () Int)
(declare-fun lam3n1 () Int)
(declare-fun lam3n2 () Int)
(declare-fun lam3n3 () Int)
(declare-fun lam3n4 () Int)
(declare-fun lam3n5 () Int)
(declare-fun lam3n6 () Int)
(declare-fun lam3n7 () Int)
(declare-fun lam3n8 () Int)
(declare-fun lam3n9 () Int)
(declare-fun lam3n10 () Int)
(declare-fun lam3n11 () Int)
(declare-fun lam3n12 () Int)
(declare-fun lam3n13 () Int)
(declare-fun lam3n14 () Int)
(declare-fun lam3n15 () Int)
(declare-fun lam3n16 () Int)
(declare-fun lam3n17 () Int)
(declare-fun lam3n18 () Int)
(declare-fun lam3n19 () Int)
(declare-fun lam3n20 () Int)
(declare-fun lam3n21 () Int)
(declare-fun lam3n22 () Int)
(declare-fun lam3n23 () Int)
(declare-fun lam3n24 () Int)
(declare-fun lam3n25 () Int)
(declare-fun lam3n28 () Int)
(declare-fun lam3n26 () Int)
(declare-fun lam3n27 () Int)
(declare-fun lam4n0 () Int)
(declare-fun lam4n1 () Int)
(declare-fun lam4n2 () Int)
(declare-fun lam4n3 () Int)
(declare-fun lam4n4 () Int)
(declare-fun lam4n5 () Int)
(declare-fun lam4n6 () Int)
(declare-fun lam4n7 () Int)
(declare-fun lam4n8 () Int)
(declare-fun lam4n9 () Int)
(declare-fun lam4n10 () Int)
(declare-fun lam4n11 () Int)
(declare-fun lam4n12 () Int)
(declare-fun lam4n13 () Int)
(declare-fun lam4n14 () Int)
(declare-fun lam4n15 () Int)
(declare-fun lam4n16 () Int)
(declare-fun lam4n17 () Int)
(declare-fun lam4n18 () Int)
(declare-fun lam4n19 () Int)
(declare-fun lam4n20 () Int)
(declare-fun lam4n21 () Int)
(declare-fun lam4n22 () Int)
(declare-fun lam4n23 () Int)
(declare-fun lam4n24 () Int)
(declare-fun lam4n25 () Int)
(declare-fun lam4n28 () Int)
(declare-fun lam4n26 () Int)
(declare-fun lam4n27 () Int)
(declare-fun lam5n0 () Int)
(declare-fun lam5n1 () Int)
(declare-fun lam5n2 () Int)
(declare-fun lam5n3 () Int)
(declare-fun lam5n4 () Int)
(declare-fun lam5n5 () Int)
(declare-fun lam5n6 () Int)
(declare-fun lam5n7 () Int)
(declare-fun lam5n8 () Int)
(declare-fun lam5n9 () Int)
(declare-fun lam5n10 () Int)
(declare-fun lam5n11 () Int)
(declare-fun lam5n12 () Int)
(declare-fun lam5n13 () Int)
(declare-fun lam5n14 () Int)
(declare-fun lam5n15 () Int)
(declare-fun lam5n16 () Int)
(declare-fun lam5n17 () Int)
(declare-fun lam5n18 () Int)
(declare-fun lam5n19 () Int)
(declare-fun lam5n20 () Int)
(declare-fun lam5n21 () Int)
(declare-fun lam5n22 () Int)
(declare-fun lam5n23 () Int)
(declare-fun lam5n24 () Int)
(declare-fun lam5n25 () Int)
(declare-fun lam5n28 () Int)
(declare-fun lam5n26 () Int)
(declare-fun lam5n27 () Int)
(declare-fun lam6n0 () Int)
(declare-fun lam6n1 () Int)
(declare-fun lam6n2 () Int)
(declare-fun lam6n3 () Int)
(declare-fun lam6n4 () Int)
(declare-fun lam6n5 () Int)
(declare-fun lam6n6 () Int)
(declare-fun lam6n7 () Int)
(declare-fun lam6n8 () Int)
(declare-fun lam6n9 () Int)
(declare-fun lam6n10 () Int)
(declare-fun lam6n11 () Int)
(declare-fun lam6n12 () Int)
(declare-fun lam6n13 () Int)
(declare-fun lam6n14 () Int)
(declare-fun lam6n15 () Int)
(declare-fun lam6n16 () Int)
(declare-fun lam6n17 () Int)
(declare-fun lam6n18 () Int)
(declare-fun undef1 () Int)
(declare-fun undef10 () Int)
(declare-fun undef19 () Int)
(declare-fun undef75 () Int)
(declare-fun undef120 () Int)
(declare-fun undef585 () Int)
(declare-fun undef586 () Int)
(declare-fun undef74 () Int)
(declare-fun undef119 () Int)
(declare-fun undef77 () Int)
(declare-fun arg3 () Int)
(declare-fun undef14 () Int)
(declare-fun undef15 () Int)
(declare-fun undef16 () Int)
(declare-fun undef17 () Int)
(declare-fun undef18 () Int)
(declare-fun lam7n0 () Int)
(declare-fun lam7n1 () Int)
(declare-fun lam7n2 () Int)
(declare-fun lam7n3 () Int)
(declare-fun lam7n4 () Int)
(declare-fun lam7n5 () Int)
(declare-fun lam7n6 () Int)
(declare-fun lam7n7 () Int)
(declare-fun lam7n8 () Int)
(declare-fun lam7n9 () Int)
(declare-fun lam7n10 () Int)
(declare-fun lam7n11 () Int)
(declare-fun lam7n12 () Int)
(declare-fun lam7n13 () Int)
(declare-fun lam7n14 () Int)
(declare-fun lam7n15 () Int)
(declare-fun lam7n16 () Int)
(declare-fun lam7n17 () Int)
(declare-fun lam7n18 () Int)
(declare-fun lam7n19 () Int)
(declare-fun lam7n20 () Int)
(declare-fun lam7n21 () Int)
(declare-fun lam7n22 () Int)
(declare-fun lam7n23 () Int)
(declare-fun lam7n24 () Int)
(declare-fun lam7n25 () Int)
(declare-fun lam7n26 () Int)
(declare-fun lam7n27 () Int)
(declare-fun lam8n0 () Int)
(declare-fun lam8n1 () Int)
(declare-fun lam8n2 () Int)
(declare-fun lam8n3 () Int)
(declare-fun lam8n4 () Int)
(declare-fun lam8n5 () Int)
(declare-fun lam8n6 () Int)
(declare-fun lam8n7 () Int)
(declare-fun lam8n8 () Int)
(declare-fun lam8n9 () Int)
(declare-fun lam8n10 () Int)
(declare-fun lam8n11 () Int)
(declare-fun lam8n12 () Int)
(declare-fun lam8n13 () Int)
(declare-fun lam8n14 () Int)
(declare-fun lam8n15 () Int)
(declare-fun lam8n16 () Int)
(declare-fun lam8n17 () Int)
(declare-fun lam8n18 () Int)
(declare-fun lam8n19 () Int)
(declare-fun lam8n20 () Int)
(declare-fun lam8n21 () Int)
(declare-fun lam8n22 () Int)
(declare-fun lam8n23 () Int)
(declare-fun lam8n24 () Int)
(declare-fun lam8n25 () Int)
(declare-fun lam8n26 () Int)
(declare-fun lam8n27 () Int)
(assert ( and ( <= ( - 1 ) Nl3arg11 ) ( <= Nl3arg11 1 ) ( <= ( - 1 ) Nl3arg21 ) ( <= Nl3arg21 1 ) ( <= ( - 1 ) Nl3arg31 ) ( <= Nl3arg31 1 ) ( <= ( - 1 ) Nl3arg41 ) ( <= Nl3arg41 1 ) ( <= ( - 1 ) Nl3arg51 ) ( <= Nl3arg51 1 ) ( <= ( - 1 ) Nl3arg61 ) ( <= Nl3arg61 1 ) ( <= ( - 1 ) Nl3arg71 ) ( <= Nl3arg71 1 ) ( <= ( - 1 ) Nl3arg81 ) ( <= Nl3arg81 1 ) ( <= ( - 1 ) Nl3arg91 ) ( <= Nl3arg91 1 ) ))
(assert ( or ( and ( >= lam0n0 0 ) ( >= lam0n1 0 ) ( >= lam0n2 0 ) ( >= lam0n3 0 ) ( >= lam0n4 0 ) ( >= lam0n5 0 ) ( >= lam0n6 0 ) ( >= lam0n7 0 ) ( >= lam0n8 0 ) ( >= lam0n9 0 ) ( >= lam0n10 0 ) ( >= lam0n11 0 ) ( >= lam0n12 0 ) ( >= lam0n13 0 ) ( >= lam0n14 0 ) ( >= lam0n15 0 ) ( >= lam0n16 0 ) ( >= lam0n17 0 ) ( >= lam0n18 0 ) ( >= lam0n19 0 ) ( > ( + ( * 1 lam0n0 ) ( * 1 lam0n1 ) ( * 1 lam0n2 ) ( * 1 lam0n3 ) ( * 1 lam0n4 ) ( * 1 lam0n5 ) ( * 2 lam0n12 ) ( * 2 lam0n13 ) ( * 2 lam0n14 ) ( * 3 lam0n15 ) ( * 3 lam0n16 ) ( * ( - 2 ) lam0n17 ) ( * ( - 2 ) lam0n18 ) ( * Nl3CT1 lam0n19 ) ( - 1 ) ) 0 ) ( = ( + ( * ( - 1 ) lam0n0 ) ( * ( - 1 ) lam0n6 ) ( * Nl3arg11 lam0n19 ) ) 0 ) ( = ( + ( * 1 lam0n12 ) ( * Nl3arg21 lam0n19 ) ) 0 ) ( = ( + ( * ( - 1 ) lam0n7 ) ( * Nl3arg31 lam0n19 ) ) 0 ) ( = ( + ( * ( - 1 ) lam0n1 ) ( * 1 lam0n7 ) ( * ( - 1 ) lam0n12 ) ( * Nl3arg41 lam0n19 ) ) 0 ) ( = ( * Nl3arg51 lam0n19 ) 0 ) ( = ( * Nl3arg61 lam0n19 ) 0 ) ( = ( * Nl3arg71 lam0n19 ) 0 ) ( = ( * Nl3arg81 lam0n19 ) 0 ) ( = ( * Nl3arg91 lam0n19 ) 0 ) ( = ( + ( * ( - 1 ) lam0n2 ) ( * 1 lam0n8 ) ) 0 ) ( = ( + ( * ( - 1 ) lam0n3 ) ( * 1 lam0n6 ) ( * ( - 1 ) lam0n8 ) ( * ( - 1 ) lam0n9 ) ( * ( - 1 ) lam0n17 ) ) 0 ) ( = ( + ( * ( - 1 ) lam0n10 ) ( * ( - 1 ) lam0n13 ) ( * ( - 1 ) lam0n15 ) ( * 1 lam0n17 ) ) 0 ) ( = ( + ( * ( - 1 ) lam0n4 ) ( * 1 lam0n9 ) ( * ( - 1 ) lam0n11 ) ( * ( - 1 ) lam0n18 ) ) 0 ) ( = ( * ( - 1 ) lam0n14 ) 0 ) ( = ( + ( * 1 lam0n10 ) ( * ( - 1 ) lam0n16 ) ( * 1 lam0n18 ) ) 0 ) ( = ( + ( * ( - 1 ) lam0n5 ) ( * 1 lam0n11 ) ( * 1 lam0n13 ) ) 0 ) ) ( and ( >= lam1n0 0 ) ( >= lam1n1 0 ) ( >= lam1n2 0 ) ( >= lam1n3 0 ) ( >= lam1n4 0 ) ( >= lam1n5 0 ) ( >= lam1n6 0 ) ( >= lam1n7 0 ) ( >= lam1n8 0 ) ( >= lam1n9 0 ) ( >= lam1n10 0 ) ( >= lam1n11 0 ) ( >= lam1n12 0 ) ( >= lam1n13 0 ) ( >= lam1n14 0 ) ( >= lam1n15 0 ) ( >= lam1n16 0 ) ( >= lam1n17 0 ) ( >= lam1n18 0 ) ( >= lam1n19 0 ) ( > ( + ( * 1 lam1n0 ) ( * 1 lam1n1 ) ( * 1 lam1n2 ) ( * 1 lam1n3 ) ( * 1 lam1n4 ) ( * 1 lam1n5 ) ( * 2 lam1n12 ) ( * 2 lam1n13 ) ( * 2 lam1n14 ) ( * 3 lam1n15 ) ( * 3 lam1n16 ) ( * ( - 2 ) lam1n17 ) ( * ( - 2 ) lam1n18 ) ( * Nl3CT1 lam1n19 ) ( - 1 ( + ( + ( + ( + ( + ( + ( + ( + Nl3CT1 ( * Nl3arg11 0 ) ) ( * Nl3arg21 1 ) ) ( * Nl3arg31 0 ) ) ( * Nl3arg51 0 ) ) ( * Nl3arg61 0 ) ) ( * Nl3arg71 0 ) ) ( * Nl3arg81 0 ) ) ( * Nl3arg91 0 ) ) ) ) 0 ) ( = ( + ( * ( - 1 ) lam1n0 ) ( * ( - 1 ) lam1n6 ) ( * Nl3arg11 lam1n19 ) ) 0 ) ( = ( + ( * 1 lam1n12 ) ( * Nl3arg21 lam1n19 ) ( - ( + 0 ( * Nl3arg21 1 ) ) ) ) 0 ) ( = ( + ( * ( - 1 ) lam1n7 ) ( * Nl3arg31 lam1n19 ) ) 0 ) ( = ( + ( * ( - 1 ) lam1n1 ) ( * 1 lam1n7 ) ( * ( - 1 ) lam1n12 ) ( * Nl3arg41 lam1n19 ) ( - ( + 0 Nl3arg41 ) ) ) 0 ) ( = ( * Nl3arg51 lam1n19 ) 0 ) ( = ( * Nl3arg61 lam1n19 ) 0 ) ( = ( * Nl3arg71 lam1n19 ) 0 ) ( = ( * Nl3arg81 lam1n19 ) 0 ) ( = ( * Nl3arg91 lam1n19 ) 0 ) ( = ( + ( * ( - 1 ) lam1n2 ) ( * 1 lam1n8 ) ( - ( + 0 ( * Nl3arg11 1 ) ) ) ) 0 ) ( = ( - ( + 0 ( * Nl3arg51 1 ) ) ) 0 ) ( = ( - ( + 0 ( * Nl3arg61 1 ) ) ) 0 ) ( = ( - ( + 0 ( * Nl3arg71 1 ) ) ) 0 ) ( = ( - ( + 0 ( * Nl3arg81 1 ) ) ) 0 ) ( = ( - ( + 0 ( * Nl3arg91 1 ) ) ) 0 ) ( = ( + ( * ( - 1 ) lam1n3 ) ( * 1 lam1n6 ) ( * ( - 1 ) lam1n8 ) ( * ( - 1 ) lam1n9 ) ( * ( - 1 ) lam1n17 ) ) 0 ) ( = ( + ( * ( - 1 ) lam1n10 ) ( * ( - 1 ) lam1n13 ) ( * ( - 1 ) lam1n15 ) ( * 1 lam1n17 ) ) 0 ) ( = ( + ( * ( - 1 ) lam1n4 ) ( * 1 lam1n9 ) ( * ( - 1 ) lam1n11 ) ( * ( - 1 ) lam1n18 ) ) 0 ) ( = ( * ( - 1 ) lam1n14 ) 0 ) ( = ( + ( * 1 lam1n10 ) ( * ( - 1 ) lam1n16 ) ( * 1 lam1n18 ) ) 0 ) ( = ( + ( * ( - 1 ) lam1n5 ) ( * 1 lam1n11 ) ( * 1 lam1n13 ) ) 0 ) ) ))
(assert ( or ( and ( >= lam2n0 0 ) ( >= lam2n1 0 ) ( >= lam2n2 0 ) ( >= lam2n3 0 ) ( >= lam2n4 0 ) ( >= lam2n5 0 ) ( >= lam2n6 0 ) ( >= lam2n7 0 ) ( >= lam2n8 0 ) ( >= lam2n9 0 ) ( >= lam2n10 0 ) ( >= lam2n11 0 ) ( >= lam2n12 0 ) ( >= lam2n13 0 ) ( >= lam2n14 0 ) ( >= lam2n15 0 ) ( >= lam2n16 0 ) ( >= lam2n17 0 ) ( >= lam2n18 0 ) ( >= lam2n19 0 ) ( >= lam2n20 0 ) ( >= lam2n21 0 ) ( >= lam2n22 0 ) ( >= lam2n23 0 ) ( >= lam2n24 0 ) ( >= lam2n25 0 ) ( >= lam2n28 0 ) ( > ( + ( * 1 lam2n0 ) ( * 1 lam2n1 ) ( * 1 lam2n2 ) ( * 1 lam2n3 ) ( * 1 lam2n4 ) ( * 1 lam2n5 ) ( * 1 lam2n6 ) ( * 1 lam2n7 ) ( * 1 lam2n8 ) ( * 1 lam2n9 ) ( * 1 lam2n10 ) ( * 2 lam2n20 ) ( * 2 lam2n21 ) ( * 3 lam2n22 ) ( * 3 lam2n23 ) ( * ( - 2 ) lam2n24 ) ( * ( - 2 ) lam2n25 ) ( * ( - 1 ) lam2n26 ) ( * ( - 1 ) lam2n27 ) ( * Nl3CT1 lam2n28 ) ( - 1 ) ) 0 ) ( = ( + ( * ( - 1 ) lam2n0 ) ( * ( - 1 ) lam2n11 ) ( * ( - 1 ) lam2n12 ) ( * Nl3arg11 lam2n28 ) ) 0 ) ( = ( + ( * 1 lam2n1 ) ( * ( - 1 ) lam2n13 ) ( * 1 lam2n26 ) ( * 1 lam2n27 ) ( * Nl3arg21 lam2n28 ) ) 0 ) ( = ( + ( * 1 lam2n2 ) ( * 1 lam2n3 ) ( * 1 lam2n4 ) ( * ( - 1 ) lam2n14 ) ( * 1 lam2n26 ) ( * 1 lam2n27 ) ( * Nl3arg31 lam2n28 ) ) 0 ) ( = ( + ( * ( - 1 ) lam2n1 ) ( * ( - 1 ) lam2n2 ) ( * ( - 1 ) lam2n5 ) ( * Nl3arg41 lam2n28 ) ) 0 ) ( = ( * Nl3arg51 lam2n28 ) 0 ) ( = ( * Nl3arg61 lam2n28 ) 0 ) ( = ( * Nl3arg71 lam2n28 ) 0 ) ( = ( * Nl3arg81 lam2n28 ) 0 ) ( = ( * Nl3arg91 lam2n28 ) 0 ) ( = ( + ( * ( - 1 ) lam2n6 ) ( * ( - 1 ) lam2n15 ) ( * ( - 1 ) lam2n24 ) ) 0 ) ( = ( * ( - 2 ) lam2n26 ) 0 ) ( = ( + ( * ( - 1 ) lam2n3 ) ( * ( - 1 ) lam2n16 ) ) 0 ) ( = ( + ( * ( - 1 ) lam2n7 ) ( * 1 lam2n11 ) ) 0 ) ( = ( + ( * ( - 1 ) lam2n8 ) ( * 1 lam2n12 ) ) 0 ) ( = ( * ( - 2 ) lam2n27 ) 0 ) ( = ( + ( * ( - 1 ) lam2n4 ) ( * ( - 1 ) lam2n17 ) ) 0 ) ( = ( + ( * ( - 1 ) lam2n18 ) ( * ( - 1 ) lam2n20 ) ( * ( - 1 ) lam2n22 ) ( * 1 lam2n24 ) ) 0 ) ( = ( + ( * ( - 1 ) lam2n9 ) ( * 1 lam2n15 ) ( * ( - 1 ) lam2n19 ) ( * ( - 1 ) lam2n25 ) ) 0 ) ( = ( * ( - 1 ) lam2n21 ) 0 ) ( = ( + ( * 1 lam2n18 ) ( * ( - 1 ) lam2n23 ) ( * 1 lam2n25 ) ) 0 ) ( = ( + ( * ( - 1 ) lam2n10 ) ( * 1 lam2n19 ) ( * 1 lam2n20 ) ) 0 ) ) ( and ( >= lam3n0 0 ) ( >= lam3n1 0 ) ( >= lam3n2 0 ) ( >= lam3n3 0 ) ( >= lam3n4 0 ) ( >= lam3n5 0 ) ( >= lam3n6 0 ) ( >= lam3n7 0 ) ( >= lam3n8 0 ) ( >= lam3n9 0 ) ( >= lam3n10 0 ) ( >= lam3n11 0 ) ( >= lam3n12 0 ) ( >= lam3n13 0 ) ( >= lam3n14 0 ) ( >= lam3n15 0 ) ( >= lam3n16 0 ) ( >= lam3n17 0 ) ( >= lam3n18 0 ) ( >= lam3n19 0 ) ( >= lam3n20 0 ) ( >= lam3n21 0 ) ( >= lam3n22 0 ) ( >= lam3n23 0 ) ( >= lam3n24 0 ) ( >= lam3n25 0 ) ( >= lam3n28 0 ) ( > ( + ( * 1 lam3n0 ) ( * 1 lam3n1 ) ( * 1 lam3n2 ) ( * 1 lam3n3 ) ( * 1 lam3n4 ) ( * 1 lam3n5 ) ( * 1 lam3n6 ) ( * 1 lam3n7 ) ( * 1 lam3n8 ) ( * 1 lam3n9 ) ( * 1 lam3n10 ) ( * 2 lam3n20 ) ( * 2 lam3n21 ) ( * 3 lam3n22 ) ( * 3 lam3n23 ) ( * ( - 2 ) lam3n24 ) ( * ( - 2 ) lam3n25 ) ( * ( - 1 ) lam3n26 ) ( * ( - 1 ) lam3n27 ) ( * Nl3CT1 lam3n28 ) ( - 1 ( + ( + ( + ( + ( + ( + ( + Nl3CT1 ( * Nl3arg11 0 ) ) ( * Nl3arg31 1 ) ) ( * Nl3arg51 0 ) ) ( * Nl3arg61 0 ) ) ( * Nl3arg71 0 ) ) ( * Nl3arg81 0 ) ) ( * Nl3arg91 0 ) ) ) ) 0 ) ( = ( + ( * ( - 1 ) lam3n0 ) ( * ( - 1 ) lam3n11 ) ( * ( - 1 ) lam3n12 ) ( * Nl3arg11 lam3n28 ) ) 0 ) ( = ( + ( * 1 lam3n1 ) ( * ( - 1 ) lam3n13 ) ( * 1 lam3n26 ) ( * 1 lam3n27 ) ( * Nl3arg21 lam3n28 ) ( - ( + 0 Nl3arg21 ) ) ) 0 ) ( = ( + ( * 1 lam3n2 ) ( * 1 lam3n3 ) ( * 1 lam3n4 ) ( * ( - 1 ) lam3n14 ) ( * 1 lam3n26 ) ( * 1 lam3n27 ) ( * Nl3arg31 lam3n28 ) ( - ( + 0 ( * Nl3arg31 1 ) ) ) ) 0 ) ( = ( + ( * ( - 1 ) lam3n1 ) ( * ( - 1 ) lam3n2 ) ( * ( - 1 ) lam3n5 ) ( * Nl3arg41 lam3n28 ) ( - ( + 0 Nl3arg41 ) ) ) 0 ) ( = ( * Nl3arg51 lam3n28 ) 0 ) ( = ( * Nl3arg61 lam3n28 ) 0 ) ( = ( * Nl3arg71 lam3n28 ) 0 ) ( = ( * Nl3arg81 lam3n28 ) 0 ) ( = ( * Nl3arg91 lam3n28 ) 0 ) ( = ( + ( * ( - 1 ) lam3n6 ) ( * ( - 1 ) lam3n15 ) ( * ( - 1 ) lam3n24 ) ) 0 ) ( = ( * ( - 2 ) lam3n26 ) 0 ) ( = ( + ( * ( - 1 ) lam3n3 ) ( * ( - 1 ) lam3n16 ) ) 0 ) ( = ( + ( * ( - 1 ) lam3n7 ) ( * 1 lam3n11 ) ) 0 ) ( = ( + ( * ( - 1 ) lam3n8 ) ( * 1 lam3n12 ) ( - ( + 0 ( * Nl3arg11 1 ) ) ) ) 0 ) ( = ( - ( + 0 ( * Nl3arg51 1 ) ) ) 0 ) ( = ( - ( + 0 ( * Nl3arg61 1 ) ) ) 0 ) ( = ( - ( + 0 ( * Nl3arg71 1 ) ) ) 0 ) ( = ( - ( + 0 ( * Nl3arg81 1 ) ) ) 0 ) ( = ( - ( + 0 ( * Nl3arg91 1 ) ) ) 0 ) ( = ( * ( - 2 ) lam3n27 ) 0 ) ( = ( + ( * ( - 1 ) lam3n4 ) ( * ( - 1 ) lam3n17 ) ) 0 ) ( = ( + ( * ( - 1 ) lam3n18 ) ( * ( - 1 ) lam3n20 ) ( * ( - 1 ) lam3n22 ) ( * 1 lam3n24 ) ) 0 ) ( = ( + ( * ( - 1 ) lam3n9 ) ( * 1 lam3n15 ) ( * ( - 1 ) lam3n19 ) ( * ( - 1 ) lam3n25 ) ) 0 ) ( = ( * ( - 1 ) lam3n21 ) 0 ) ( = ( + ( * 1 lam3n18 ) ( * ( - 1 ) lam3n23 ) ( * 1 lam3n25 ) ) 0 ) ( = ( + ( * ( - 1 ) lam3n10 ) ( * 1 lam3n19 ) ( * 1 lam3n20 ) ) 0 ) ) ))
(assert ( or ( and ( >= lam4n0 0 ) ( >= lam4n1 0 ) ( >= lam4n2 0 ) ( >= lam4n3 0 ) ( >= lam4n4 0 ) ( >= lam4n5 0 ) ( >= lam4n6 0 ) ( >= lam4n7 0 ) ( >= lam4n8 0 ) ( >= lam4n9 0 ) ( >= lam4n10 0 ) ( >= lam4n11 0 ) ( >= lam4n12 0 ) ( >= lam4n13 0 ) ( >= lam4n14 0 ) ( >= lam4n15 0 ) ( >= lam4n16 0 ) ( >= lam4n17 0 ) ( >= lam4n18 0 ) ( >= lam4n19 0 ) ( >= lam4n20 0 ) ( >= lam4n21 0 ) ( >= lam4n22 0 ) ( >= lam4n23 0 ) ( >= lam4n24 0 ) ( >= lam4n25 0 ) ( >= lam4n28 0 ) ( > ( + ( * 1 lam4n0 ) ( * 1 lam4n1 ) ( * 1 lam4n2 ) ( * 1 lam4n3 ) ( * 1 lam4n4 ) ( * 1 lam4n5 ) ( * 1 lam4n6 ) ( * 1 lam4n7 ) ( * 1 lam4n8 ) ( * 1 lam4n9 ) ( * 1 lam4n10 ) ( * 2 lam4n20 ) ( * 2 lam4n21 ) ( * 3 lam4n22 ) ( * 3 lam4n23 ) ( * ( - 2 ) lam4n24 ) ( * ( - 2 ) lam4n25 ) ( * Nl3CT1 lam4n28 ) ( - 1 ) ) 0 ) ( = ( + ( * ( - 1 ) lam4n0 ) ( * ( - 1 ) lam4n11 ) ( * ( - 1 ) lam4n12 ) ( * Nl3arg11 lam4n28 ) ) 0 ) ( = ( + ( * 1 lam4n1 ) ( * ( - 1 ) lam4n13 ) ( * 1 lam4n26 ) ( * 1 lam4n27 ) ( * Nl3arg21 lam4n28 ) ) 0 ) ( = ( + ( * 1 lam4n2 ) ( * 1 lam4n3 ) ( * 1 lam4n4 ) ( * ( - 1 ) lam4n14 ) ( * 1 lam4n26 ) ( * 1 lam4n27 ) ( * Nl3arg31 lam4n28 ) ) 0 ) ( = ( + ( * ( - 1 ) lam4n1 ) ( * ( - 1 ) lam4n2 ) ( * ( - 1 ) lam4n5 ) ( * Nl3arg41 lam4n28 ) ) 0 ) ( = ( * Nl3arg51 lam4n28 ) 0 ) ( = ( * Nl3arg61 lam4n28 ) 0 ) ( = ( * Nl3arg71 lam4n28 ) 0 ) ( = ( * Nl3arg81 lam4n28 ) 0 ) ( = ( * Nl3arg91 lam4n28 ) 0 ) ( = ( + ( * ( - 1 ) lam4n6 ) ( * ( - 1 ) lam4n15 ) ( * ( - 1 ) lam4n24 ) ) 0 ) ( = ( * ( - 2 ) lam4n26 ) 0 ) ( = ( + ( * ( - 1 ) lam4n3 ) ( * ( - 1 ) lam4n16 ) ) 0 ) ( = ( + ( * ( - 1 ) lam4n7 ) ( * 1 lam4n11 ) ) 0 ) ( = ( + ( * ( - 1 ) lam4n8 ) ( * 1 lam4n12 ) ) 0 ) ( = ( * ( - 2 ) lam4n27 ) 0 ) ( = ( + ( * ( - 1 ) lam4n4 ) ( * ( - 1 ) lam4n17 ) ) 0 ) ( = ( + ( * ( - 1 ) lam4n18 ) ( * ( - 1 ) lam4n20 ) ( * ( - 1 ) lam4n22 ) ( * 1 lam4n24 ) ) 0 ) ( = ( + ( * ( - 1 ) lam4n9 ) ( * 1 lam4n15 ) ( * ( - 1 ) lam4n19 ) ( * ( - 1 ) lam4n25 ) ) 0 ) ( = ( * ( - 1 ) lam4n21 ) 0 ) ( = ( + ( * 1 lam4n18 ) ( * ( - 1 ) lam4n23 ) ( * 1 lam4n25 ) ) 0 ) ( = ( + ( * ( - 1 ) lam4n10 ) ( * 1 lam4n19 ) ( * 1 lam4n20 ) ) 0 ) ) ( and ( >= lam5n0 0 ) ( >= lam5n1 0 ) ( >= lam5n2 0 ) ( >= lam5n3 0 ) ( >= lam5n4 0 ) ( >= lam5n5 0 ) ( >= lam5n6 0 ) ( >= lam5n7 0 ) ( >= lam5n8 0 ) ( >= lam5n9 0 ) ( >= lam5n10 0 ) ( >= lam5n11 0 ) ( >= lam5n12 0 ) ( >= lam5n13 0 ) ( >= lam5n14 0 ) ( >= lam5n15 0 ) ( >= lam5n16 0 ) ( >= lam5n17 0 ) ( >= lam5n18 0 ) ( >= lam5n19 0 ) ( >= lam5n20 0 ) ( >= lam5n21 0 ) ( >= lam5n22 0 ) ( >= lam5n23 0 ) ( >= lam5n24 0 ) ( >= lam5n25 0 ) ( >= lam5n28 0 ) ( > ( + ( * 1 lam5n0 ) ( * 1 lam5n1 ) ( * 1 lam5n2 ) ( * 1 lam5n3 ) ( * 1 lam5n4 ) ( * 1 lam5n5 ) ( * 1 lam5n6 ) ( * 1 lam5n7 ) ( * 1 lam5n8 ) ( * 1 lam5n9 ) ( * 1 lam5n10 ) ( * 2 lam5n20 ) ( * 2 lam5n21 ) ( * 3 lam5n22 ) ( * 3 lam5n23 ) ( * ( - 2 ) lam5n24 ) ( * ( - 2 ) lam5n25 ) ( * Nl3CT1 lam5n28 ) ( - 1 ( + ( + ( + ( + ( + ( + ( + Nl3CT1 ( * Nl3arg11 0 ) ) ( * Nl3arg31 1 ) ) ( * Nl3arg51 0 ) ) ( * Nl3arg61 0 ) ) ( * Nl3arg71 0 ) ) ( * Nl3arg81 0 ) ) ( * Nl3arg91 0 ) ) ) ) 0 ) ( = ( + ( * ( - 1 ) lam5n0 ) ( * ( - 1 ) lam5n11 ) ( * ( - 1 ) lam5n12 ) ( * Nl3arg11 lam5n28 ) ) 0 ) ( = ( + ( * 1 lam5n1 ) ( * ( - 1 ) lam5n13 ) ( * 1 lam5n26 ) ( * 1 lam5n27 ) ( * Nl3arg21 lam5n28 ) ( - ( + 0 Nl3arg21 ) ) ) 0 ) ( = ( + ( * 1 lam5n2 ) ( * 1 lam5n3 ) ( * 1 lam5n4 ) ( * ( - 1 ) lam5n14 ) ( * 1 lam5n26 ) ( * 1 lam5n27 ) ( * Nl3arg31 lam5n28 ) ( - ( + 0 ( * Nl3arg31 1 ) ) ) ) 0 ) ( = ( + ( * ( - 1 ) lam5n1 ) ( * ( - 1 ) lam5n2 ) ( * ( - 1 ) lam5n5 ) ( * Nl3arg41 lam5n28 ) ( - ( + 0 Nl3arg41 ) ) ) 0 ) ( = ( * Nl3arg51 lam5n28 ) 0 ) ( = ( * Nl3arg61 lam5n28 ) 0 ) ( = ( * Nl3arg71 lam5n28 ) 0 ) ( = ( * Nl3arg81 lam5n28 ) 0 ) ( = ( * Nl3arg91 lam5n28 ) 0 ) ( = ( + ( * ( - 1 ) lam5n6 ) ( * ( - 1 ) lam5n15 ) ( * ( - 1 ) lam5n24 ) ) 0 ) ( = ( * ( - 2 ) lam5n26 ) 0 ) ( = ( + ( * ( - 1 ) lam5n3 ) ( * ( - 1 ) lam5n16 ) ) 0 ) ( = ( + ( * ( - 1 ) lam5n7 ) ( * 1 lam5n11 ) ) 0 ) ( = ( + ( * ( - 1 ) lam5n8 ) ( * 1 lam5n12 ) ( - ( + 0 ( * Nl3arg11 1 ) ) ) ) 0 ) ( = ( - ( + 0 ( * Nl3arg51 1 ) ) ) 0 ) ( = ( - ( + 0 ( * Nl3arg61 1 ) ) ) 0 ) ( = ( - ( + 0 ( * Nl3arg71 1 ) ) ) 0 ) ( = ( - ( + 0 ( * Nl3arg81 1 ) ) ) 0 ) ( = ( - ( + 0 ( * Nl3arg91 1 ) ) ) 0 ) ( = ( * ( - 2 ) lam5n27 ) 0 ) ( = ( + ( * ( - 1 ) lam5n4 ) ( * ( - 1 ) lam5n17 ) ) 0 ) ( = ( + ( * ( - 1 ) lam5n18 ) ( * ( - 1 ) lam5n20 ) ( * ( - 1 ) lam5n22 ) ( * 1 lam5n24 ) ) 0 ) ( = ( + ( * ( - 1 ) lam5n9 ) ( * 1 lam5n15 ) ( * ( - 1 ) lam5n19 ) ( * ( - 1 ) lam5n25 ) ) 0 ) ( = ( * ( - 1 ) lam5n21 ) 0 ) ( = ( + ( * 1 lam5n18 ) ( * ( - 1 ) lam5n23 ) ( * 1 lam5n25 ) ) 0 ) ( = ( + ( * ( - 1 ) lam5n10 ) ( * 1 lam5n19 ) ( * 1 lam5n20 ) ) 0 ) ) ))
(assert ( and ( <= ( + 1 ( * ( - 1 ) undef1 ) ) 0 ) ( <= ( + 1 ( * ( - 1 ) undef10 ) ) 0 ) ( <= ( + 1 ( * ( - 1 ) undef19 ) ) 0 ) ( <= ( + 1 ( * ( - 1 ) undef75 ) ) 0 ) ( <= ( + 1 ( * ( - 1 ) undef120 ) ) 0 ) ( <= ( + 1 ( * ( - 1 ) undef585 ) ) 0 ) ( <= ( + 1 ( * ( - 1 ) undef586 ) ) 0 ) ( <= ( + undef1 ( * ( - 1 ) undef585 ) ) 0 ) ( <= ( + ( * ( - 1 ) undef1 ) undef10 ) 0 ) ( <= ( + ( * ( - 1 ) undef19 ) undef75 ) 0 ) ( <= ( + ( * ( - 1 ) undef74 ) undef119 ) 0 ) ( <= ( + ( * ( - 1 ) undef75 ) undef120 ) 0 ) ( <= ( + 2 ( * ( - 1 ) undef74 ) undef120 ) 0 ) ( not ( <= ( + ( - 1 ) undef77 ) 0 ) ) ( <= ( + 3 ( * ( - 1 ) undef74 ) ) 0 ) ( <= ( + 3 ( * ( - 1 ) undef119 ) ) 0 ) ( <= ( + ( - 2 ) ( * ( - 1 ) undef19 ) undef74 ) 0 ) ( <= ( + ( - 2 ) ( * ( - 1 ) undef75 ) undef119 ) 0 ) ( = arg3 0 ) ( <= ( + ( + ( + ( + ( + ( + ( + ( + ( + Nl3CT1 ( * Nl3arg11 0 ) ) ( * Nl3arg21 0 ) ) ( * Nl3arg41 0 ) ) ( * Nl3arg51 0 ) ) ( * Nl3arg61 0 ) ) ( * Nl3arg71 0 ) ) ( * Nl3arg81 0 ) ) ( * Nl3arg91 0 ) ) ( * ( + 0 Nl3arg31 ) arg3 ) ( * ( + 0 ( * Nl3arg11 1 ) ) undef10 ) ( * ( + 0 ( * Nl3arg51 1 ) ) undef14 ) ( * ( + 0 ( * Nl3arg61 1 ) ) undef15 ) ( * ( + 0 ( * Nl3arg71 1 ) ) undef16 ) ( * ( + 0 ( * Nl3arg81 1 ) ) undef17 ) ( * ( + 0 ( * Nl3arg91 1 ) ) undef18 ) ( * ( + 0 ( * Nl3arg41 1 ) ) undef586 ) ) 0 ) ))
(assert ( or ( or ( and ( >= lam7n0 0 ) ( >= lam7n1 0 ) ( >= lam7n2 0 ) ( >= lam7n3 0 ) ( >= lam7n4 0 ) ( >= lam7n5 0 ) ( >= lam7n6 0 ) ( >= lam7n7 0 ) ( >= lam7n8 0 ) ( >= lam7n9 0 ) ( >= lam7n10 0 ) ( >= lam7n11 0 ) ( >= lam7n12 0 ) ( >= lam7n13 0 ) ( >= lam7n14 0 ) ( >= lam7n15 0 ) ( >= lam7n16 0 ) ( >= lam7n17 0 ) ( >= lam7n18 0 ) ( >= lam7n19 0 ) ( >= lam7n20 0 ) ( >= lam7n21 0 ) ( >= lam7n22 0 ) ( >= lam7n23 0 ) ( >= lam7n24 0 ) ( >= lam7n25 0 ) ( >= lam7n26 0 ) ( >= lam7n27 0 ) ( > ( + ( * 1 lam7n0 ) ( * 1 lam7n1 ) ( * 1 lam7n2 ) ( * 1 lam7n3 ) ( * 1 lam7n4 ) ( * 1 lam7n5 ) ( * 1 lam7n6 ) ( * ( - 1 ) lam7n7 ) ( * 2 lam7n16 ) ( * 2 lam7n17 ) ( * 3 lam7n18 ) ( * 3 lam7n19 ) ( * 3 lam7n20 ) ( * 3 lam7n21 ) ( * 3 lam7n22 ) ( * ( - 2 ) lam7n23 ) ( * ( - 2 ) lam7n24 ) ( * ( - 2 ) lam7n25 ) ( * ( - 2 ) lam7n26 ) ( * Nl3CT1 lam7n27 ) ( - 1 ) ) 0 ) ( = ( + ( * ( - 1 ) lam7n0 ) ( * ( - 1 ) lam7n8 ) ( * Nl3arg11 lam7n27 ) ) 0 ) ( = ( + ( * ( - 1 ) lam7n7 ) ( * Nl3arg21 lam7n27 ) ) 0 ) ( = ( + ( * ( - 1 ) lam7n9 ) ( * Nl3arg31 lam7n27 ) ) 0 ) ( = ( + ( * ( - 1 ) lam7n1 ) ( * 1 lam7n7 ) ( * 1 lam7n9 ) ( * Nl3arg41 lam7n27 ) ) 0 ) ( = ( * Nl3arg51 lam7n27 ) 0 ) ( = ( * Nl3arg61 lam7n27 ) 0 ) ( = ( * Nl3arg71 lam7n27 ) 0 ) ( = ( * Nl3arg81 lam7n27 ) 0 ) ( = ( * Nl3arg91 lam7n27 ) 0 ) ( = ( + ( * ( - 1 ) lam7n2 ) ( * 1 lam7n8 ) ( * ( - 1 ) lam7n10 ) ( * ( - 1 ) lam7n23 ) ) 0 ) ( = ( + ( * ( - 1 ) lam7n11 ) ( * ( - 1 ) lam7n16 ) ( * ( - 1 ) lam7n18 ) ( * 1 lam7n23 ) ) 0 ) ( = ( + ( * ( - 1 ) lam7n3 ) ( * 1 lam7n10 ) ( * ( - 1 ) lam7n12 ) ( * ( - 1 ) lam7n24 ) ) 0 ) ( = ( + ( * ( - 1 ) lam7n4 ) ( * 1 lam7n13 ) ( * 1 lam7n17 ) ) 0 ) ( = ( + ( * 1 lam7n14 ) ( * ( - 1 ) lam7n19 ) ( * 1 lam7n25 ) ) 0 ) ( = ( + ( * 1 lam7n15 ) ( * ( - 1 ) lam7n20 ) ( * 1 lam7n26 ) ) 0 ) ( = ( + ( * 1 lam7n11 ) ( * ( - 1 ) lam7n21 ) ( * 1 lam7n24 ) ) 0 ) ( = ( + ( * ( - 1 ) lam7n5 ) ( * 1 lam7n12 ) ( * 1 lam7n16 ) ) 0 ) ( = ( + ( * ( - 1 ) lam7n14 ) ( * ( - 1 ) lam7n15 ) ( * ( - 1 ) lam7n17 ) ( * ( - 1 ) lam7n22 ) ) 0 ) ( = ( + ( * ( - 1 ) lam7n6 ) ( * ( - 1 ) lam7n13 ) ( * ( - 1 ) lam7n25 ) ( * ( - 1 ) lam7n26 ) ) 0 ) ) ( and ( >= lam8n0 0 ) ( >= lam8n1 0 ) ( >= lam8n2 0 ) ( >= lam8n3 0 ) ( >= lam8n4 0 ) ( >= lam8n5 0 ) ( >= lam8n6 0 ) ( >= lam8n7 0 ) ( >= lam8n8 0 ) ( >= lam8n9 0 ) ( >= lam8n10 0 ) ( >= lam8n11 0 ) ( >= lam8n12 0 ) ( >= lam8n13 0 ) ( >= lam8n14 0 ) ( >= lam8n15 0 ) ( >= lam8n16 0 ) ( >= lam8n17 0 ) ( >= lam8n18 0 ) ( >= lam8n19 0 ) ( >= lam8n20 0 ) ( >= lam8n21 0 ) ( >= lam8n22 0 ) ( >= lam8n23 0 ) ( >= lam8n24 0 ) ( >= lam8n25 0 ) ( >= lam8n26 0 ) ( >= lam8n27 0 ) ( > ( + ( * 1 lam8n0 ) ( * 1 lam8n1 ) ( * 1 lam8n2 ) ( * 1 lam8n3 ) ( * 1 lam8n4 ) ( * 1 lam8n5 ) ( * 1 lam8n6 ) ( * ( - 1 ) lam8n7 ) ( * 2 lam8n16 ) ( * 2 lam8n17 ) ( * 3 lam8n18 ) ( * 3 lam8n19 ) ( * 3 lam8n20 ) ( * 3 lam8n21 ) ( * 3 lam8n22 ) ( * ( - 2 ) lam8n23 ) ( * ( - 2 ) lam8n24 ) ( * ( - 2 ) lam8n25 ) ( * ( - 2 ) lam8n26 ) ( * Nl3CT1 lam8n27 ) 2 ) 0 ) ( = ( + ( * ( - 1 ) lam8n0 ) ( * ( - 1 ) lam8n8 ) ( * Nl3arg11 lam8n27 ) ) 0 ) ( = ( + ( * ( - 1 ) lam8n7 ) ( * Nl3arg21 lam8n27 ) ) 0 ) ( = ( + ( * ( - 1 ) lam8n9 ) ( * Nl3arg31 lam8n27 ) ) 0 ) ( = ( + ( * ( - 1 ) lam8n1 ) ( * 1 lam8n7 ) ( * 1 lam8n9 ) ( * Nl3arg41 lam8n27 ) ) 0 ) ( = ( * Nl3arg51 lam8n27 ) 0 ) ( = ( * Nl3arg61 lam8n27 ) 0 ) ( = ( * Nl3arg71 lam8n27 ) 0 ) ( = ( * Nl3arg81 lam8n27 ) 0 ) ( = ( * Nl3arg91 lam8n27 ) 0 ) ( = ( + ( * ( - 1 ) lam8n2 ) ( * 1 lam8n8 ) ( * ( - 1 ) lam8n10 ) ( * ( - 1 ) lam8n23 ) ) 0 ) ( = ( + ( * ( - 1 ) lam8n11 ) ( * ( - 1 ) lam8n16 ) ( * ( - 1 ) lam8n18 ) ( * 1 lam8n23 ) ) 0 ) ( = ( + ( * ( - 1 ) lam8n3 ) ( * 1 lam8n10 ) ( * ( - 1 ) lam8n12 ) ( * ( - 1 ) lam8n24 ) ) 0 ) ( = ( - 1 ) 0 ) ( = ( + ( * ( - 1 ) lam8n4 ) ( * 1 lam8n13 ) ( * 1 lam8n17 ) ) 0 ) ( = ( + ( * 1 lam8n14 ) ( * ( - 1 ) lam8n19 ) ( * 1 lam8n25 ) ) 0 ) ( = ( + ( * 1 lam8n15 ) ( * ( - 1 ) lam8n20 ) ( * 1 lam8n26 ) ) 0 ) ( = ( + ( * 1 lam8n11 ) ( * ( - 1 ) lam8n21 ) ( * 1 lam8n24 ) ) 0 ) ( = ( + ( * ( - 1 ) lam8n5 ) ( * 1 lam8n12 ) ( * 1 lam8n16 ) ) 0 ) ( = ( + ( * ( - 1 ) lam8n14 ) ( * ( - 1 ) lam8n15 ) ( * ( - 1 ) lam8n17 ) ( * ( - 1 ) lam8n22 ) ) 0 ) ( = ( + ( * ( - 1 ) lam8n6 ) ( * ( - 1 ) lam8n13 ) ( * ( - 1 ) lam8n25 ) ( * ( - 1 ) lam8n26 ) ) 0 ) ) ) ( and ( and ( <= ( + 1 ( * ( - 1 ) undef1 ) ) 0 ) ( <= ( + 1 ( * ( - 1 ) undef10 ) ) 0 ) ( <= ( + 1 ( * ( - 1 ) undef19 ) ) 0 ) ( <= ( + 1 ( * ( - 1 ) undef75 ) ) 0 ) ( <= ( + 1 ( * ( - 1 ) undef120 ) ) 0 ) ( <= ( + 1 ( * ( - 1 ) undef585 ) ) 0 ) ( <= ( + 1 ( * ( - 1 ) undef586 ) ) 0 ) ( <= ( + undef1 ( * ( - 1 ) undef585 ) ) 0 ) ( <= ( + ( * ( - 1 ) undef1 ) undef10 ) 0 ) ( <= ( + ( * ( - 1 ) undef19 ) undef75 ) 0 ) ( <= ( + ( * ( - 1 ) undef74 ) undef119 ) 0 ) ( <= ( + ( * ( - 1 ) undef75 ) undef120 ) 0 ) ( <= ( + 2 ( * ( - 1 ) undef74 ) undef120 ) 0 ) ( not ( <= ( + ( - 1 ) undef77 ) 0 ) ) ( <= ( + 3 ( * ( - 1 ) undef74 ) ) 0 ) ( <= ( + 3 ( * ( - 1 ) undef119 ) ) 0 ) ( <= ( + ( - 2 ) ( * ( - 1 ) undef19 ) undef74 ) 0 ) ( <= ( + ( - 2 ) ( * ( - 1 ) undef75 ) undef119 ) 0 ) ( = arg3 0 ) ( <= ( + ( + ( + ( + ( + ( + ( + ( + ( + Nl3CT1 ( * Nl3arg11 0 ) ) ( * Nl3arg21 0 ) ) ( * Nl3arg41 0 ) ) ( * Nl3arg51 0 ) ) ( * Nl3arg61 0 ) ) ( * Nl3arg71 0 ) ) ( * Nl3arg81 0 ) ) ( * Nl3arg91 0 ) ) ( * ( + 0 Nl3arg31 ) arg3 ) ( * ( + 0 ( * Nl3arg11 1 ) ) undef10 ) ( * ( + 0 ( * Nl3arg51 1 ) ) undef14 ) ( * ( + 0 ( * Nl3arg61 1 ) ) undef15 ) ( * ( + 0 ( * Nl3arg71 1 ) ) undef16 ) ( * ( + 0 ( * Nl3arg81 1 ) ) undef17 ) ( * ( + 0 ( * Nl3arg91 1 ) ) undef18 ) ( * ( + 0 ( * Nl3arg41 1 ) ) undef586 ) ) 0 ) ) ( or ( and ( >= lam0n0 0 ) ( >= lam0n1 0 ) ( >= lam0n2 0 ) ( >= lam0n3 0 ) ( >= lam0n4 0 ) ( >= lam0n5 0 ) ( >= lam0n6 0 ) ( >= lam0n7 0 ) ( >= lam0n8 0 ) ( >= lam0n9 0 ) ( >= lam0n10 0 ) ( >= lam0n11 0 ) ( >= lam0n12 0 ) ( >= lam0n13 0 ) ( >= lam0n14 0 ) ( >= lam0n15 0 ) ( >= lam0n16 0 ) ( >= lam0n17 0 ) ( >= lam0n18 0 ) ( >= lam0n19 0 ) ( > ( + ( * 1 lam0n0 ) ( * 1 lam0n1 ) ( * 1 lam0n2 ) ( * 1 lam0n3 ) ( * 1 lam0n4 ) ( * 1 lam0n5 ) ( * 2 lam0n12 ) ( * 2 lam0n13 ) ( * 2 lam0n14 ) ( * 3 lam0n15 ) ( * 3 lam0n16 ) ( * ( - 2 ) lam0n17 ) ( * ( - 2 ) lam0n18 ) ( * Nl3CT1 lam0n19 ) ( - 1 ) ) 0 ) ( = ( + ( * ( - 1 ) lam0n0 ) ( * ( - 1 ) lam0n6 ) ( * Nl3arg11 lam0n19 ) ) 0 ) ( = ( + ( * 1 lam0n12 ) ( * Nl3arg21 lam0n19 ) ) 0 ) ( = ( + ( * ( - 1 ) lam0n7 ) ( * Nl3arg31 lam0n19 ) ) 0 ) ( = ( + ( * ( - 1 ) lam0n1 ) ( * 1 lam0n7 ) ( * ( - 1 ) lam0n12 ) ( * Nl3arg41 lam0n19 ) ) 0 ) ( = ( * Nl3arg51 lam0n19 ) 0 ) ( = ( * Nl3arg61 lam0n19 ) 0 ) ( = ( * Nl3arg71 lam0n19 ) 0 ) ( = ( * Nl3arg81 lam0n19 ) 0 ) ( = ( * Nl3arg91 lam0n19 ) 0 ) ( = ( + ( * ( - 1 ) lam0n2 ) ( * 1 lam0n8 ) ) 0 ) ( = ( + ( * ( - 1 ) lam0n3 ) ( * 1 lam0n6 ) ( * ( - 1 ) lam0n8 ) ( * ( - 1 ) lam0n9 ) ( * ( - 1 ) lam0n17 ) ) 0 ) ( = ( + ( * ( - 1 ) lam0n10 ) ( * ( - 1 ) lam0n13 ) ( * ( - 1 ) lam0n15 ) ( * 1 lam0n17 ) ) 0 ) ( = ( + ( * ( - 1 ) lam0n4 ) ( * 1 lam0n9 ) ( * ( - 1 ) lam0n11 ) ( * ( - 1 ) lam0n18 ) ) 0 ) ( = ( * ( - 1 ) lam0n14 ) 0 ) ( = ( + ( * 1 lam0n10 ) ( * ( - 1 ) lam0n16 ) ( * 1 lam0n18 ) ) 0 ) ( = ( + ( * ( - 1 ) lam0n5 ) ( * 1 lam0n11 ) ( * 1 lam0n13 ) ) 0 ) ) ( and ( >= lam2n0 0 ) ( >= lam2n1 0 ) ( >= lam2n2 0 ) ( >= lam2n3 0 ) ( >= lam2n4 0 ) ( >= lam2n5 0 ) ( >= lam2n6 0 ) ( >= lam2n7 0 ) ( >= lam2n8 0 ) ( >= lam2n9 0 ) ( >= lam2n10 0 ) ( >= lam2n11 0 ) ( >= lam2n12 0 ) ( >= lam2n13 0 ) ( >= lam2n14 0 ) ( >= lam2n15 0 ) ( >= lam2n16 0 ) ( >= lam2n17 0 ) ( >= lam2n18 0 ) ( >= lam2n19 0 ) ( >= lam2n20 0 ) ( >= lam2n21 0 ) ( >= lam2n22 0 ) ( >= lam2n23 0 ) ( >= lam2n24 0 ) ( >= lam2n25 0 ) ( >= lam2n28 0 ) ( > ( + ( * 1 lam2n0 ) ( * 1 lam2n1 ) ( * 1 lam2n2 ) ( * 1 lam2n3 ) ( * 1 lam2n4 ) ( * 1 lam2n5 ) ( * 1 lam2n6 ) ( * 1 lam2n7 ) ( * 1 lam2n8 ) ( * 1 lam2n9 ) ( * 1 lam2n10 ) ( * 2 lam2n20 ) ( * 2 lam2n21 ) ( * 3 lam2n22 ) ( * 3 lam2n23 ) ( * ( - 2 ) lam2n24 ) ( * ( - 2 ) lam2n25 ) ( * ( - 1 ) lam2n26 ) ( * ( - 1 ) lam2n27 ) ( * Nl3CT1 lam2n28 ) ( - 1 ) ) 0 ) ( = ( + ( * ( - 1 ) lam2n0 ) ( * ( - 1 ) lam2n11 ) ( * ( - 1 ) lam2n12 ) ( * Nl3arg11 lam2n28 ) ) 0 ) ( = ( + ( * 1 lam2n1 ) ( * ( - 1 ) lam2n13 ) ( * 1 lam2n26 ) ( * 1 lam2n27 ) ( * Nl3arg21 lam2n28 ) ) 0 ) ( = ( + ( * 1 lam2n2 ) ( * 1 lam2n3 ) ( * 1 lam2n4 ) ( * ( - 1 ) lam2n14 ) ( * 1 lam2n26 ) ( * 1 lam2n27 ) ( * Nl3arg31 lam2n28 ) ) 0 ) ( = ( + ( * ( - 1 ) lam2n1 ) ( * ( - 1 ) lam2n2 ) ( * ( - 1 ) lam2n5 ) ( * Nl3arg41 lam2n28 ) ) 0 ) ( = ( * Nl3arg51 lam2n28 ) 0 ) ( = ( * Nl3arg61 lam2n28 ) 0 ) ( = ( * Nl3arg71 lam2n28 ) 0 ) ( = ( * Nl3arg81 lam2n28 ) 0 ) ( = ( * Nl3arg91 lam2n28 ) 0 ) ( = ( + ( * ( - 1 ) lam2n6 ) ( * ( - 1 ) lam2n15 ) ( * ( - 1 ) lam2n24 ) ) 0 ) ( = ( * ( - 2 ) lam2n26 ) 0 ) ( = ( + ( * ( - 1 ) lam2n3 ) ( * ( - 1 ) lam2n16 ) ) 0 ) ( = ( + ( * ( - 1 ) lam2n7 ) ( * 1 lam2n11 ) ) 0 ) ( = ( + ( * ( - 1 ) lam2n8 ) ( * 1 lam2n12 ) ) 0 ) ( = ( * ( - 2 ) lam2n27 ) 0 ) ( = ( + ( * ( - 1 ) lam2n4 ) ( * ( - 1 ) lam2n17 ) ) 0 ) ( = ( + ( * ( - 1 ) lam2n18 ) ( * ( - 1 ) lam2n20 ) ( * ( - 1 ) lam2n22 ) ( * 1 lam2n24 ) ) 0 ) ( = ( + ( * ( - 1 ) lam2n9 ) ( * 1 lam2n15 ) ( * ( - 1 ) lam2n19 ) ( * ( - 1 ) lam2n25 ) ) 0 ) ( = ( * ( - 1 ) lam2n21 ) 0 ) ( = ( + ( * 1 lam2n18 ) ( * ( - 1 ) lam2n23 ) ( * 1 lam2n25 ) ) 0 ) ( = ( + ( * ( - 1 ) lam2n10 ) ( * 1 lam2n19 ) ( * 1 lam2n20 ) ) 0 ) ) ( and ( >= lam4n0 0 ) ( >= lam4n1 0 ) ( >= lam4n2 0 ) ( >= lam4n3 0 ) ( >= lam4n4 0 ) ( >= lam4n5 0 ) ( >= lam4n6 0 ) ( >= lam4n7 0 ) ( >= lam4n8 0 ) ( >= lam4n9 0 ) ( >= lam4n10 0 ) ( >= lam4n11 0 ) ( >= lam4n12 0 ) ( >= lam4n13 0 ) ( >= lam4n14 0 ) ( >= lam4n15 0 ) ( >= lam4n16 0 ) ( >= lam4n17 0 ) ( >= lam4n18 0 ) ( >= lam4n19 0 ) ( >= lam4n20 0 ) ( >= lam4n21 0 ) ( >= lam4n22 0 ) ( >= lam4n23 0 ) ( >= lam4n24 0 ) ( >= lam4n25 0 ) ( >= lam4n28 0 ) ( > ( + ( * 1 lam4n0 ) ( * 1 lam4n1 ) ( * 1 lam4n2 ) ( * 1 lam4n3 ) ( * 1 lam4n4 ) ( * 1 lam4n5 ) ( * 1 lam4n6 ) ( * 1 lam4n7 ) ( * 1 lam4n8 ) ( * 1 lam4n9 ) ( * 1 lam4n10 ) ( * 2 lam4n20 ) ( * 2 lam4n21 ) ( * 3 lam4n22 ) ( * 3 lam4n23 ) ( * ( - 2 ) lam4n24 ) ( * ( - 2 ) lam4n25 ) ( * Nl3CT1 lam4n28 ) ( - 1 ) ) 0 ) ( = ( + ( * ( - 1 ) lam4n0 ) ( * ( - 1 ) lam4n11 ) ( * ( - 1 ) lam4n12 ) ( * Nl3arg11 lam4n28 ) ) 0 ) ( = ( + ( * 1 lam4n1 ) ( * ( - 1 ) lam4n13 ) ( * 1 lam4n26 ) ( * 1 lam4n27 ) ( * Nl3arg21 lam4n28 ) ) 0 ) ( = ( + ( * 1 lam4n2 ) ( * 1 lam4n3 ) ( * 1 lam4n4 ) ( * ( - 1 ) lam4n14 ) ( * 1 lam4n26 ) ( * 1 lam4n27 ) ( * Nl3arg31 lam4n28 ) ) 0 ) ( = ( + ( * ( - 1 ) lam4n1 ) ( * ( - 1 ) lam4n2 ) ( * ( - 1 ) lam4n5 ) ( * Nl3arg41 lam4n28 ) ) 0 ) ( = ( * Nl3arg51 lam4n28 ) 0 ) ( = ( * Nl3arg61 lam4n28 ) 0 ) ( = ( * Nl3arg71 lam4n28 ) 0 ) ( = ( * Nl3arg81 lam4n28 ) 0 ) ( = ( * Nl3arg91 lam4n28 ) 0 ) ( = ( + ( * ( - 1 ) lam4n6 ) ( * ( - 1 ) lam4n15 ) ( * ( - 1 ) lam4n24 ) ) 0 ) ( = ( * ( - 2 ) lam4n26 ) 0 ) ( = ( + ( * ( - 1 ) lam4n3 ) ( * ( - 1 ) lam4n16 ) ) 0 ) ( = ( + ( * ( - 1 ) lam4n7 ) ( * 1 lam4n11 ) ) 0 ) ( = ( + ( * ( - 1 ) lam4n8 ) ( * 1 lam4n12 ) ) 0 ) ( = ( * ( - 2 ) lam4n27 ) 0 ) ( = ( + ( * ( - 1 ) lam4n4 ) ( * ( - 1 ) lam4n17 ) ) 0 ) ( = ( + ( * ( - 1 ) lam4n18 ) ( * ( - 1 ) lam4n20 ) ( * ( - 1 ) lam4n22 ) ( * 1 lam4n24 ) ) 0 ) ( = ( + ( * ( - 1 ) lam4n9 ) ( * 1 lam4n15 ) ( * ( - 1 ) lam4n19 ) ( * ( - 1 ) lam4n25 ) ) 0 ) ( = ( * ( - 1 ) lam4n21 ) 0 ) ( = ( + ( * 1 lam4n18 ) ( * ( - 1 ) lam4n23 ) ( * 1 lam4n25 ) ) 0 ) ( = ( + ( * ( - 1 ) lam4n10 ) ( * 1 lam4n19 ) ( * 1 lam4n20 ) ) 0 ) ) ) ) ))
(check-sat)
(exit)
